# Tipo de simulación acorde a los parametros
pair_style	lj/charmm/coul/long 8.0 10.0 10.0
bond_style      harmonic
angle_style     charmm
dihedral_style  charmm
improper_style  harmonic
kspace_style	pppm 0.0001

#   • Lectura del archivo (ingrese su titulo y extension) -
#  Variable: _"data.peptide"_

read_data data.peptide
